NAME : TSP_INST.538.tour
COMMENT : Length = 538
COMMENT : Found by LKH [Keld Helsgaun] Sat Oct 18 14:36:34 2025
TYPE : TOUR
DIMENSION : 76
TOUR_SECTION
1
33
63
16
3
44
32
9
39
72
58
12
40
17
51
6
68
4
75
76
26
67
34
46
52
27
45
29
48
30
2
74
28
61
21
47
36
69
71
60
70
20
37
5
15
57
13
54
19
8
7
35
53
14
59
11
66
65
38
10
31
55
25
50
18
24
49
23
56
41
43
42
64
22
62
73
-1
EOF
